; --full-saturate-quant --inst-when=full-last-call --inst-no-entail --term-db-mode=relevant --random-seed=1 --lang=smt2 --tlimit 484
;(set-option :produce-unsat-cores true)
(set-logic ALL_SUPPORTED)
(declare-sort A$ 0)
(declare-sort A_set$ 0)
(declare-sort A_llist_set$ 0)
(declare-sort A_llist_llist_set$ 0)
(declare-sort A_llist_llist_llist_set$ 0)
(declare-sort A_llist_llist_llist_llist_set$ 0)
(declare-codatatypes () ((A_llist$ (lNil$) (lCons$ (lhd$ A$) (ltl$ A_llist$)))
  (A_llist_llist$ (lNil$a) (lCons$a (lhd$a A_llist$) (ltl$a A_llist_llist$)))
  (A_llist_llist_llist$ (lNil$b) (lCons$b (lhd$b A_llist_llist$) (ltl$b A_llist_llist_llist$)))
  (A_llist_llist_llist_llist$ (lNil$c) (lCons$c (lhd$c A_llist_llist_llist$) (ltl$c A_llist_llist_llist_llist$)))))
(declare-fun a$ () A_set$)
(declare-fun r$ () A_llist$)
(declare-fun s$ () A_llist$)
(declare-fun t$ () A_llist$)
(declare-fun lconst$ (A_llist_llist_llist$) A_llist_llist_llist_llist$)
(declare-fun member$ (A_llist$ A_llist_set$) Bool)
(declare-fun thesis$ () Bool)
(declare-fun finlsts$ (A_set$) A_llist_set$)
(declare-fun inflsts$ (A_set$) A_llist_set$)
(declare-fun infsuff$ (A_set$ A_llist$) A_llist_set$)
(declare-fun lappend$ (A_llist$ A_llist$) A_llist$)
(declare-fun lconst$a (A_llist_llist$) A_llist_llist_llist$)
(declare-fun lconst$b (A_llist$) A_llist_llist$)
(declare-fun lconst$c (A$) A_llist$)
(declare-fun member$a (A_llist_llist_llist$ A_llist_llist_llist_set$) Bool)
(declare-fun member$b (A_llist_llist$ A_llist_llist_set$) Bool)
(declare-fun member$c (A_llist_llist_llist_llist$ A_llist_llist_llist_llist_set$) Bool)
(declare-fun member$d (A$ A_set$) Bool)
(declare-fun finlsts$a (A_llist_llist_set$) A_llist_llist_llist_set$)
(declare-fun finlsts$b (A_llist_set$) A_llist_llist_set$)
(declare-fun inflsts$a (A_llist_llist_set$) A_llist_llist_llist_set$)
(declare-fun inflsts$b (A_llist_set$) A_llist_llist_set$)
(declare-fun inflsts$c (A_llist_llist_llist_set$) A_llist_llist_llist_llist_set$)
(declare-fun infsuff$a (A_llist_llist_set$ A_llist_llist_llist$) A_llist_llist_llist_set$)
(declare-fun infsuff$b (A_llist_set$ A_llist_llist$) A_llist_llist_set$)
(declare-fun lappend$a (A_llist_llist_llist$ A_llist_llist_llist$) A_llist_llist_llist$)
(declare-fun lappend$b (A_llist_llist$ A_llist_llist$) A_llist_llist$)
(assert (! (not thesis$) :named a0))
(assert (! (member$ t$ (infsuff$ a$ r$)) :named a1))
(assert (! (forall ((?v0 A_llist$)) (=> (and (member$ ?v0 (inflsts$ a$)) (= t$ (lappend$ r$ ?v0))) thesis$)) :named a2))
(assert (! (member$ r$ (finlsts$ a$)) :named a3))
(assert (! (forall ((?v0 A_llist_llist_llist$) (?v1 A_llist_llist_set$) (?v2 A_llist_llist_llist$)) (=> (member$a ?v0 (inflsts$a ?v1)) (= (lappend$a ?v0 ?v2) ?v0))) :named a4))
(assert (! (forall ((?v0 A_llist_llist$) (?v1 A_llist_set$) (?v2 A_llist_llist$)) (=> (member$b ?v0 (inflsts$b ?v1)) (= (lappend$b ?v0 ?v2) ?v0))) :named a5))
(assert (! (forall ((?v0 A_llist$) (?v1 A_set$) (?v2 A_llist$)) (=> (member$ ?v0 (inflsts$ ?v1)) (= (lappend$ ?v0 ?v2) ?v0))) :named a6))
(assert (! (=> (forall ((?v0 A_llist$)) (=> (and (member$ t$ (inflsts$ a$)) (= t$ (lappend$ r$ ?v0))) false)) false) :named a7))
(assert (! (forall ((?v0 A_llist_llist_llist$) (?v1 A_llist_llist_set$) (?v2 A_llist_llist_llist$)) (=> (member$a ?v0 (infsuff$a ?v1 ?v2)) (member$a ?v0 (inflsts$a ?v1)))) :named a8))
(assert (! (forall ((?v0 A_llist_llist$) (?v1 A_llist_set$) (?v2 A_llist_llist$)) (=> (member$b ?v0 (infsuff$b ?v1 ?v2)) (member$b ?v0 (inflsts$b ?v1)))) :named a9))
(assert (! (forall ((?v0 A_llist$) (?v1 A_set$) (?v2 A_llist$)) (=> (member$ ?v0 (infsuff$ ?v1 ?v2)) (member$ ?v0 (inflsts$ ?v1)))) :named a10))
(assert (! (forall ((?v0 A_llist_llist_llist$) (?v1 A_llist_llist_llist_set$)) (=> (member$a ?v0 ?v1) (member$c (lconst$ ?v0) (inflsts$c ?v1)))) :named a11))
(assert (! (forall ((?v0 A_llist_llist$) (?v1 A_llist_llist_set$)) (=> (member$b ?v0 ?v1) (member$a (lconst$a ?v0) (inflsts$a ?v1)))) :named a12))
(assert (! (forall ((?v0 A_llist$) (?v1 A_llist_set$)) (=> (member$ ?v0 ?v1) (member$b (lconst$b ?v0) (inflsts$b ?v1)))) :named a13))
(assert (! (forall ((?v0 A$) (?v1 A_set$)) (=> (member$d ?v0 ?v1) (member$ (lconst$c ?v0) (inflsts$ ?v1)))) :named a14))
(assert (! (member$ s$ (inflsts$ a$)) :named a15))
(assert (! (= t$ (lappend$ r$ s$)) :named a16))
(assert (! (member$ t$ (inflsts$ a$)) :named a17))
(assert (! (forall ((?v0 A_llist_llist_llist$) (?v1 A_llist_llist_llist$) (?v2 A_llist_llist_set$)) (= (member$a (lappend$a ?v0 ?v1) (finlsts$a ?v2)) (and (member$a ?v0 (finlsts$a ?v2)) (member$a ?v1 (finlsts$a ?v2))))) :named a18))
(assert (! (forall ((?v0 A_llist_llist$) (?v1 A_llist_llist$) (?v2 A_llist_set$)) (= (member$b (lappend$b ?v0 ?v1) (finlsts$b ?v2)) (and (member$b ?v0 (finlsts$b ?v2)) (member$b ?v1 (finlsts$b ?v2))))) :named a19))
(assert (! (forall ((?v0 A_llist$) (?v1 A_llist$) (?v2 A_set$)) (= (member$ (lappend$ ?v0 ?v1) (finlsts$ ?v2)) (and (member$ ?v0 (finlsts$ ?v2)) (member$ ?v1 (finlsts$ ?v2))))) :named a20))
(assert (! (forall ((?v0 A_llist_llist_llist$) (?v1 A_llist_llist_set$) (?v2 A_llist_llist_llist$) (?v3 A_llist_llist_llist$)) (=> (member$a ?v0 (finlsts$a ?v1)) (= (= (lappend$a ?v0 ?v2) (lappend$a ?v0 ?v3)) (= ?v2 ?v3)))) :named a21))
(assert (! (forall ((?v0 A_llist_llist$) (?v1 A_llist_set$) (?v2 A_llist_llist$) (?v3 A_llist_llist$)) (=> (member$b ?v0 (finlsts$b ?v1)) (= (= (lappend$b ?v0 ?v2) (lappend$b ?v0 ?v3)) (= ?v2 ?v3)))) :named a22))
(assert (! (forall ((?v0 A_llist$) (?v1 A_set$) (?v2 A_llist$) (?v3 A_llist$)) (=> (member$ ?v0 (finlsts$ ?v1)) (= (= (lappend$ ?v0 ?v2) (lappend$ ?v0 ?v3)) (= ?v2 ?v3)))) :named a23))
(assert (! (forall ((?v0 A_llist_llist_llist$) (?v1 A_llist_llist_llist$) (?v2 A_llist_llist_set$)) (= (member$a (lappend$a ?v0 ?v1) (inflsts$a ?v2)) (or (and (member$a ?v0 (finlsts$a ?v2)) (member$a ?v1 (inflsts$a ?v2))) (member$a ?v0 (inflsts$a ?v2))))) :named a24))
(assert (! (forall ((?v0 A_llist_llist$) (?v1 A_llist_llist$) (?v2 A_llist_set$)) (= (member$b (lappend$b ?v0 ?v1) (inflsts$b ?v2)) (or (and (member$b ?v0 (finlsts$b ?v2)) (member$b ?v1 (inflsts$b ?v2))) (member$b ?v0 (inflsts$b ?v2))))) :named a25))
(assert (! (forall ((?v0 A_llist$) (?v1 A_llist$) (?v2 A_set$)) (= (member$ (lappend$ ?v0 ?v1) (inflsts$ ?v2)) (or (and (member$ ?v0 (finlsts$ ?v2)) (member$ ?v1 (inflsts$ ?v2))) (member$ ?v0 (inflsts$ ?v2))))) :named a26))
(assert (! (forall ((?v0 A_llist_llist_llist$) (?v1 A_llist_llist_llist$) (?v2 A_llist_llist_set$)) (=> (member$a (lappend$a ?v0 ?v1) (finlsts$a ?v2)) (member$a ?v0 (finlsts$a ?v2)))) :named a27))
(assert (! (forall ((?v0 A_llist_llist$) (?v1 A_llist_llist$) (?v2 A_llist_set$)) (=> (member$b (lappend$b ?v0 ?v1) (finlsts$b ?v2)) (member$b ?v0 (finlsts$b ?v2)))) :named a28))
(assert (! (forall ((?v0 A_llist$) (?v1 A_llist$) (?v2 A_set$)) (=> (member$ (lappend$ ?v0 ?v1) (finlsts$ ?v2)) (member$ ?v0 (finlsts$ ?v2)))) :named a29))
(assert (! (forall ((?v0 A_llist_llist_llist$) (?v1 A_llist_llist_llist$) (?v2 A_llist_llist_set$)) (=> (member$a (lappend$a ?v0 ?v1) (inflsts$a ?v2)) (or (and (member$a ?v0 (finlsts$a ?v2)) (member$a ?v1 (inflsts$a ?v2))) (member$a ?v0 (inflsts$a ?v2))))) :named a30))
(assert (! (forall ((?v0 A_llist_llist$) (?v1 A_llist_llist$) (?v2 A_llist_set$)) (=> (member$b (lappend$b ?v0 ?v1) (inflsts$b ?v2)) (or (and (member$b ?v0 (finlsts$b ?v2)) (member$b ?v1 (inflsts$b ?v2))) (member$b ?v0 (inflsts$b ?v2))))) :named a31))
(assert (! (forall ((?v0 A_llist$) (?v1 A_llist$) (?v2 A_set$)) (=> (member$ (lappend$ ?v0 ?v1) (inflsts$ ?v2)) (or (and (member$ ?v0 (finlsts$ ?v2)) (member$ ?v1 (inflsts$ ?v2))) (member$ ?v0 (inflsts$ ?v2))))) :named a32))
(assert (! (forall ((?v0 A_llist_llist_llist$) (?v1 A_llist_llist_set$) (?v2 A_llist_llist_llist$)) (=> (and (member$a ?v0 (finlsts$a ?v1)) (member$a (lappend$a ?v0 ?v2) (inflsts$a ?v1))) (member$a ?v2 (inflsts$a ?v1)))) :named a33))
(assert (! (forall ((?v0 A_llist_llist$) (?v1 A_llist_set$) (?v2 A_llist_llist$)) (=> (and (member$b ?v0 (finlsts$b ?v1)) (member$b (lappend$b ?v0 ?v2) (inflsts$b ?v1))) (member$b ?v2 (inflsts$b ?v1)))) :named a34))
(assert (! (forall ((?v0 A_llist$) (?v1 A_set$) (?v2 A_llist$)) (=> (and (member$ ?v0 (finlsts$ ?v1)) (member$ (lappend$ ?v0 ?v2) (inflsts$ ?v1))) (member$ ?v2 (inflsts$ ?v1)))) :named a35))
(assert (! (forall ((?v0 A_llist_llist_llist$) (?v1 A_llist_llist_set$) (?v2 A_llist_llist_llist$)) (=> (and (member$a ?v0 (finlsts$a ?v1)) (member$a ?v2 (finlsts$a ?v1))) (member$a (lappend$a ?v0 ?v2) (finlsts$a ?v1)))) :named a36))
(assert (! (forall ((?v0 A_llist_llist$) (?v1 A_llist_set$) (?v2 A_llist_llist$)) (=> (and (member$b ?v0 (finlsts$b ?v1)) (member$b ?v2 (finlsts$b ?v1))) (member$b (lappend$b ?v0 ?v2) (finlsts$b ?v1)))) :named a37))
(assert (! (forall ((?v0 A_llist$) (?v1 A_set$) (?v2 A_llist$)) (=> (and (member$ ?v0 (finlsts$ ?v1)) (member$ ?v2 (finlsts$ ?v1))) (member$ (lappend$ ?v0 ?v2) (finlsts$ ?v1)))) :named a38))
(check-sat)
;(get-unsat-core)
